p cnf 225 2178
1 2 3 4 5 0
6 7 8 9 10 0
11 12 13 14 15 0
16 17 18 19 20 0
21 22 23 24 25 0
26 27 28 29 30 0
31 32 33 34 35 0
36 37 38 39 40 0
41 42 43 44 45 0
46 47 48 49 50 0
51 52 53 54 55 0
56 57 58 59 60 0
61 62 63 64 65 0
66 67 68 69 70 0
71 72 73 74 75 0
76 77 78 79 80 0
81 82 83 84 85 0
86 87 88 89 90 0
91 92 93 94 95 0
96 97 98 99 100 0
101 102 103 104 105 0
106 107 108 109 110 0
111 112 113 114 115 0
116 117 118 119 120 0
121 122 123 124 125 0
126 127 128 129 130 0
131 132 133 134 135 0
136 137 138 139 140 0
141 142 143 144 145 0
146 147 148 149 150 0
151 152 153 154 155 0
156 157 158 159 160 0
161 162 163 164 165 0
166 167 168 169 170 0
171 172 173 174 175 0
176 177 178 179 180 0
181 182 183 184 185 0
186 187 188 189 190 0
191 192 193 194 195 0
196 197 198 199 200 0
201 202 203 204 205 0
206 207 208 209 210 0
211 212 213 214 215 0
216 217 218 219 220 0
221 222 223 224 225 0
-1 -2 0
-1 -3 0
-1 -4 0
-1 -5 0
-2 -3 0
-2 -4 0
-2 -5 0
-3 -4 0
-3 -5 0
-4 -5 0
-6 -7 0
-6 -8 0
-6 -9 0
-6 -10 0
-7 -8 0
-7 -9 0
-7 -10 0
-8 -9 0
-8 -10 0
-9 -10 0
-11 -12 0
-11 -13 0
-11 -14 0
-11 -15 0
-12 -13 0
-12 -14 0
-12 -15 0
-13 -14 0
-13 -15 0
-14 -15 0
-16 -17 0
-16 -18 0
-16 -19 0
-16 -20 0
-17 -18 0
-17 -19 0
-17 -20 0
-18 -19 0
-18 -20 0
-19 -20 0
-21 -22 0
-21 -23 0
-21 -24 0
-21 -25 0
-22 -23 0
-22 -24 0
-22 -25 0
-23 -24 0
-23 -25 0
-24 -25 0
-26 -27 0
-26 -28 0
-26 -29 0
-26 -30 0
-27 -28 0
-27 -29 0
-27 -30 0
-28 -29 0
-28 -30 0
-29 -30 0
-31 -32 0
-31 -33 0
-31 -34 0
-31 -35 0
-32 -33 0
-32 -34 0
-32 -35 0
-33 -34 0
-33 -35 0
-34 -35 0
-36 -37 0
-36 -38 0
-36 -39 0
-36 -40 0
-37 -38 0
-37 -39 0
-37 -40 0
-38 -39 0
-38 -40 0
-39 -40 0
-41 -42 0
-41 -43 0
-41 -44 0
-41 -45 0
-42 -43 0
-42 -44 0
-42 -45 0
-43 -44 0
-43 -45 0
-44 -45 0
-46 -47 0
-46 -48 0
-46 -49 0
-46 -50 0
-47 -48 0
-47 -49 0
-47 -50 0
-48 -49 0
-48 -50 0
-49 -50 0
-51 -52 0
-51 -53 0
-51 -54 0
-51 -55 0
-52 -53 0
-52 -54 0
-52 -55 0
-53 -54 0
-53 -55 0
-54 -55 0
-56 -57 0
-56 -58 0
-56 -59 0
-56 -60 0
-57 -58 0
-57 -59 0
-57 -60 0
-58 -59 0
-58 -60 0
-59 -60 0
-61 -62 0
-61 -63 0
-61 -64 0
-61 -65 0
-62 -63 0
-62 -64 0
-62 -65 0
-63 -64 0
-63 -65 0
-64 -65 0
-66 -67 0
-66 -68 0
-66 -69 0
-66 -70 0
-67 -68 0
-67 -69 0
-67 -70 0
-68 -69 0
-68 -70 0
-69 -70 0
-71 -72 0
-71 -73 0
-71 -74 0
-71 -75 0
-72 -73 0
-72 -74 0
-72 -75 0
-73 -74 0
-73 -75 0
-74 -75 0
-76 -77 0
-76 -78 0
-76 -79 0
-76 -80 0
-77 -78 0
-77 -79 0
-77 -80 0
-78 -79 0
-78 -80 0
-79 -80 0
-81 -82 0
-81 -83 0
-81 -84 0
-81 -85 0
-82 -83 0
-82 -84 0
-82 -85 0
-83 -84 0
-83 -85 0
-84 -85 0
-86 -87 0
-86 -88 0
-86 -89 0
-86 -90 0
-87 -88 0
-87 -89 0
-87 -90 0
-88 -89 0
-88 -90 0
-89 -90 0
-91 -92 0
-91 -93 0
-91 -94 0
-91 -95 0
-92 -93 0
-92 -94 0
-92 -95 0
-93 -94 0
-93 -95 0
-94 -95 0
-96 -97 0
-96 -98 0
-96 -99 0
-96 -100 0
-97 -98 0
-97 -99 0
-97 -100 0
-98 -99 0
-98 -100 0
-99 -100 0
-101 -102 0
-101 -103 0
-101 -104 0
-101 -105 0
-102 -103 0
-102 -104 0
-102 -105 0
-103 -104 0
-103 -105 0
-104 -105 0
-106 -107 0
-106 -108 0
-106 -109 0
-106 -110 0
-107 -108 0
-107 -109 0
-107 -110 0
-108 -109 0
-108 -110 0
-109 -110 0
-111 -112 0
-111 -113 0
-111 -114 0
-111 -115 0
-112 -113 0
-112 -114 0
-112 -115 0
-113 -114 0
-113 -115 0
-114 -115 0
-116 -117 0
-116 -118 0
-116 -119 0
-116 -120 0
-117 -118 0
-117 -119 0
-117 -120 0
-118 -119 0
-118 -120 0
-119 -120 0
-121 -122 0
-121 -123 0
-121 -124 0
-121 -125 0
-122 -123 0
-122 -124 0
-122 -125 0
-123 -124 0
-123 -125 0
-124 -125 0
-126 -127 0
-126 -128 0
-126 -129 0
-126 -130 0
-127 -128 0
-127 -129 0
-127 -130 0
-128 -129 0
-128 -130 0
-129 -130 0
-131 -132 0
-131 -133 0
-131 -134 0
-131 -135 0
-132 -133 0
-132 -134 0
-132 -135 0
-133 -134 0
-133 -135 0
-134 -135 0
-136 -137 0
-136 -138 0
-136 -139 0
-136 -140 0
-137 -138 0
-137 -139 0
-137 -140 0
-138 -139 0
-138 -140 0
-139 -140 0
-141 -142 0
-141 -143 0
-141 -144 0
-141 -145 0
-142 -143 0
-142 -144 0
-142 -145 0
-143 -144 0
-143 -145 0
-144 -145 0
-146 -147 0
-146 -148 0
-146 -149 0
-146 -150 0
-147 -148 0
-147 -149 0
-147 -150 0
-148 -149 0
-148 -150 0
-149 -150 0
-151 -152 0
-151 -153 0
-151 -154 0
-151 -155 0
-152 -153 0
-152 -154 0
-152 -155 0
-153 -154 0
-153 -155 0
-154 -155 0
-156 -157 0
-156 -158 0
-156 -159 0
-156 -160 0
-157 -158 0
-157 -159 0
-157 -160 0
-158 -159 0
-158 -160 0
-159 -160 0
-161 -162 0
-161 -163 0
-161 -164 0
-161 -165 0
-162 -163 0
-162 -164 0
-162 -165 0
-163 -164 0
-163 -165 0
-164 -165 0
-166 -167 0
-166 -168 0
-166 -169 0
-166 -170 0
-167 -168 0
-167 -169 0
-167 -170 0
-168 -169 0
-168 -170 0
-169 -170 0
-171 -172 0
-171 -173 0
-171 -174 0
-171 -175 0
-172 -173 0
-172 -174 0
-172 -175 0
-173 -174 0
-173 -175 0
-174 -175 0
-176 -177 0
-176 -178 0
-176 -179 0
-176 -180 0
-177 -178 0
-177 -179 0
-177 -180 0
-178 -179 0
-178 -180 0
-179 -180 0
-181 -182 0
-181 -183 0
-181 -184 0
-181 -185 0
-182 -183 0
-182 -184 0
-182 -185 0
-183 -184 0
-183 -185 0
-184 -185 0
-186 -187 0
-186 -188 0
-186 -189 0
-186 -190 0
-187 -188 0
-187 -189 0
-187 -190 0
-188 -189 0
-188 -190 0
-189 -190 0
-191 -192 0
-191 -193 0
-191 -194 0
-191 -195 0
-192 -193 0
-192 -194 0
-192 -195 0
-193 -194 0
-193 -195 0
-194 -195 0
-196 -197 0
-196 -198 0
-196 -199 0
-196 -200 0
-197 -198 0
-197 -199 0
-197 -200 0
-198 -199 0
-198 -200 0
-199 -200 0
-201 -202 0
-201 -203 0
-201 -204 0
-201 -205 0
-202 -203 0
-202 -204 0
-202 -205 0
-203 -204 0
-203 -205 0
-204 -205 0
-206 -207 0
-206 -208 0
-206 -209 0
-206 -210 0
-207 -208 0
-207 -209 0
-207 -210 0
-208 -209 0
-208 -210 0
-209 -210 0
-211 -212 0
-211 -213 0
-211 -214 0
-211 -215 0
-212 -213 0
-212 -214 0
-212 -215 0
-213 -214 0
-213 -215 0
-214 -215 0
-216 -217 0
-216 -218 0
-216 -219 0
-216 -220 0
-217 -218 0
-217 -219 0
-217 -220 0
-218 -219 0
-218 -220 0
-219 -220 0
-221 -222 0
-221 -223 0
-221 -224 0
-221 -225 0
-222 -223 0
-222 -224 0
-222 -225 0
-223 -224 0
-223 -225 0
-224 -225 0
-4 -17 0
-5 -20 0
-3 -16 0
-1 -20 0
-1 -19 0
-4 -18 0
-3 -18 0
-4 -19 0
-1 -16 0
-4 -20 0
-5 -17 0
-4 -16 0
-1 -17 0
-5 -18 0
-3 -17 0
-2 -18 0
-5 -19 0
-2 -24 0
-4 -25 0
-1 -24 0
-5 -25 0
-5 -24 0
-1 -25 0
-3 -23 0
-1 -23 0
-4 -24 0
-5 -22 0
-3 -22 0
-5 -23 0
-3 -24 0
-1 -21 0
-4 -22 0
-2 -21 0
-3 -21 0
-2 -91 0
-4 -92 0
-3 -93 0
-3 -94 0
-5 -91 0
-1 -91 0
-3 -91 0
-2 -95 0
-3 -95 0
-4 -93 0
-2 -94 0
-1 -92 0
-4 -95 0
-2 -92 0
-1 -95 0
-5 -94 0
-2 -93 0
-5 -127 0
-2 -129 0
-4 -129 0
-3 -130 0
-3 -128 0
-1 -129 0
-1 -127 0
-5 -126 0
-1 -128 0
-2 -127 0
-3 -129 0
-4 -126 0
-5 -128 0
-5 -129 0
-2 -130 0
-4 -128 0
-4 -130 0
-5 -187 0
-2 -189 0
-1 -186 0
-2 -190 0
-3 -188 0
-5 -189 0
-4 -190 0
-3 -189 0
-3 -186 0
-4 -189 0
-5 -190 0
-1 -188 0
-4 -186 0
-2 -186 0
-4 -188 0
-1 -187 0
-1 -189 0
-3 -199 0
-1 -199 0
-1 -200 0
-1 -196 0
-3 -198 0
-2 -199 0
-3 -200 0
-5 -197 0
-1 -197 0
-5 -196 0
-4 -199 0
-1 -198 0
-3 -197 0
-5 -198 0
-5 -199 0
-3 -196 0
-4 -198 0
-2 -202 0
-2 -203 0
-4 -204 0
-3 -203 0
-5 -201 0
-3 -204 0
-5 -204 0
-2 -201 0
-2 -204 0
-1 -204 0
-5 -203 0
-4 -201 0
-1 -203 0
-3 -202 0
-5 -202 0
-4 -202 0
-1 -205 0
-6 -40 0
-7 -39 0
-8 -39 0
-9 -36 0
-10 -40 0
-8 -37 0
-7 -40 0
-7 -36 0
-10 -37 0
-6 -38 0
-9 -37 0
-8 -36 0
-7 -38 0
-6 -37 0
-9 -38 0
-9 -39 0
-9 -40 0
-6 -195 0
-6 -193 0
-10 -194 0
-8 -191 0
-9 -192 0
-9 -193 0
-8 -193 0
-7 -192 0
-10 -193 0
-9 -191 0
-9 -195 0
-9 -194 0
-10 -192 0
-7 -193 0
-8 -194 0
-10 -195 0
-8 -195 0
-8 -199 0
-9 -200 0
-10 -199 0
-9 -196 0
-10 -196 0
-6 -198 0
-7 -196 0
-7 -198 0
-9 -197 0
-6 -200 0
-9 -198 0
-7 -199 0
-8 -198 0
-6 -196 0
-8 -196 0
-8 -200 0
-6 -199 0
-6 -209 0
-10 -206 0
-10 -209 0
-6 -207 0
-6 -206 0
-10 -210 0
-9 -208 0
-8 -208 0
-6 -208 0
-8 -209 0
-7 -206 0
-9 -210 0
-9 -207 0
-9 -209 0
-7 -210 0
-7 -208 0
-8 -210 0
-11 -55 0
-11 -52 0
-15 -51 0
-15 -52 0
-14 -54 0
-14 -52 0
-15 -55 0
-11 -51 0
-13 -51 0
-12 -55 0
-14 -53 0
-13 -53 0
-15 -54 0
-15 -53 0
-13 -55 0
-14 -55 0
-12 -52 0
-15 -132 0
-13 -132 0
-12 -135 0
-14 -131 0
-14 -132 0
-12 -131 0
-11 -135 0
-13 -134 0
-15 -133 0
-13 -131 0
-12 -133 0
-14 -133 0
-13 -135 0
-11 -134 0
-11 -132 0
-12 -132 0
-14 -134 0
-15 -155 0
-11 -151 0
-11 -152 0
-14 -152 0
-11 -154 0
-13 -154 0
-14 -154 0
-12 -155 0
-12 -154 0
-12 -151 0
-15 -153 0
-15 -151 0
-13 -155 0
-14 -153 0
-13 -151 0
-15 -152 0
-12 -152 0
-15 -187 0
-13 -186 0
-15 -186 0
-14 -188 0
-11 -188 0
-14 -186 0
-12 -189 0
-12 -186 0
-12 -188 0
-15 -189 0
-11 -187 0
-11 -189 0
-13 -187 0
-15 -190 0
-14 -190 0
-13 -189 0
-13 -190 0
-18 -68 0
-16 -67 0
-19 -70 0
-17 -68 0
-18 -70 0
-17 -67 0
-20 -67 0
-17 -66 0
-19 -68 0
-18 -69 0
-18 -67 0
-16 -69 0
-20 -70 0
-19 -67 0
-16 -68 0
-16 -66 0
-20 -69 0
-20 -120 0
-16 -116 0
-16 -118 0
-19 -117 0
-18 -120 0
-17 -116 0
-19 -120 0
-20 -117 0
-16 -120 0
-17 -119 0
-17 -118 0
-17 -120 0
-18 -116 0
-16 -119 0
-20 -116 0
-18 -119 0
-19 -118 0
-18 -132 0
-19 -131 0
-16 -131 0
-17 -131 0
-17 -135 0
-20 -132 0
-19 -132 0
-19 -133 0
-18 -133 0
-17 -132 0
-16 -135 0
-18 -134 0
-20 -134 0
-17 -134 0
-17 -133 0
-18 -131 0
-19 -135 0
-22 -114 0
-23 -114 0
-23 -113 0
-21 -114 0
-24 -113 0
-23 -111 0
-24 -114 0
-21 -115 0
-22 -113 0
-25 -111 0
-25 -113 0
-25 -114 0
-21 -111 0
-22 -111 0
-22 -115 0
-24 -115 0
-25 -115 0
-22 -133 0
-23 -135 0
-21 -131 0
-23 -132 0
-22 -134 0
-21 -132 0
-24 -135 0
-22 -131 0
-23 -131 0
-25 -135 0
-24 -132 0
-25 -134 0
-22 -135 0
-25 -132 0
-25 -131 0
-21 -133 0
-23 -134 0
-24 -174 0
-24 -173 0
-23 -175 0
-24 -175 0
-25 -174 0
-22 -174 0
-21 -174 0
-25 -171 0
-23 -172 0
-22 -171 0
-22 -175 0
-21 -171 0
-22 -173 0
-23 -173 0
-24 -171 0
-21 -172 0
-24 -172 0
-29 -130 0
-28 -126 0
-27 -126 0
-30 -130 0
-26 -126 0
-28 -128 0
-29 -128 0
-26 -129 0
-26 -127 0
-26 -130 0
-27 -129 0
-30 -126 0
-27 -130 0
-30 -129 0
-29 -129 0
-29 -126 0
-29 -127 0
-27 -161 0
-29 -163 0
-29 -162 0
-30 -163 0
-27 -162 0
-30 -164 0
-26 -164 0
-28 -165 0
-27 -165 0
-29 -161 0
-30 -165 0
-29 -165 0
-26 -161 0
-26 -165 0
-28 -163 0
-28 -162 0
-30 -161 0
-29 -177 0
-26 -179 0
-28 -176 0
-26 -176 0
-30 -177 0
-29 -178 0
-29 -180 0
-28 -177 0
-27 -176 0
-28 -180 0
-30 -176 0
-26 -178 0
-27 -178 0
-26 -180 0
-30 -179 0
-29 -179 0
-30 -178 0
-26 -181 0
-28 -181 0
-28 -182 0
-27 -184 0
-26 -183 0
-28 -185 0
-30 -183 0
-28 -183 0
-30 -185 0
-27 -185 0
-26 -184 0
-29 -185 0
-30 -184 0
-27 -181 0
-29 -184 0
-30 -181 0
-28 -184 0
-28 -198 0
-30 -197 0
-26 -200 0
-27 -200 0
-26 -199 0
-29 -197 0
-26 -197 0
-28 -199 0
-28 -200 0
-28 -196 0
-27 -198 0
-26 -196 0
-26 -198 0
-29 -196 0
-29 -200 0
-30 -200 0
-30 -198 0
-35 -106 0
-35 -108 0
-33 -107 0
-34 -106 0
-31 -107 0
-31 -110 0
-35 -107 0
-32 -110 0
-34 -108 0
-31 -106 0
-32 -107 0
-33 -108 0
-33 -109 0
-31 -109 0
-35 -109 0
-35 -110 0
-32 -109 0
-32 -143 0
-32 -141 0
-31 -143 0
-33 -142 0
-33 -145 0
-33 -143 0
-33 -144 0
-31 -141 0
-34 -145 0
-35 -144 0
-34 -144 0
-35 -143 0
-35 -142 0
-32 -144 0
-34 -143 0
-31 -145 0
-34 -142 0
-34 -146 0
-33 -150 0
-31 -150 0
-33 -148 0
-32 -146 0
-35 -150 0
-31 -148 0
-31 -147 0
-35 -146 0
-32 -148 0
-35 -148 0
-32 -150 0
-33 -146 0
-31 -149 0
-33 -149 0
-34 -147 0
-35 -147 0
-37 -48 0
-38 -46 0
-36 -46 0
-37 -46 0
-39 -47 0
-36 -48 0
-36 -50 0
-38 -47 0
-36 -47 0
-38 -48 0
-40 -46 0
-40 -49 0
-37 -47 0
-40 -48 0
-39 -46 0
-37 -49 0
-39 -49 0
-39 -81 0
-40 -84 0
-38 -85 0
-36 -81 0
-38 -83 0
-40 -83 0
-36 -84 0
-37 -83 0
-38 -84 0
-40 -81 0
-36 -85 0
-37 -85 0
-38 -81 0
-38 -82 0
-39 -85 0
-40 -85 0
-39 -82 0
-37 -87 0
-39 -87 0
-36 -90 0
-37 -90 0
-39 -86 0
-39 -89 0
-36 -88 0
-38 -88 0
-36 -89 0
-38 -90 0
-39 -90 0
-40 -86 0
-38 -87 0
-40 -89 0
-40 -90 0
-39 -88 0
-37 -89 0
-39 -96 0
-39 -100 0
-36 -97 0
-38 -97 0
-37 -97 0
-37 -100 0
-37 -96 0
-36 -99 0
-36 -100 0
-36 -96 0
-38 -96 0
-38 -98 0
-40 -100 0
-37 -98 0
-40 -99 0
-40 -97 0
-39 -99 0
-44 -144 0
-45 -144 0
-41 -141 0
-43 -142 0
-45 -145 0
-43 -143 0
-43 -144 0
-44 -145 0
-45 -143 0
-44 -143 0
-43 -141 0
-41 -145 0
-44 -142 0
-42 -143 0
-42 -141 0
-42 -144 0
-45 -141 0
-50 -174 0
-48 -173 0
-50 -175 0
-49 -175 0
-46 -171 0
-46 -172 0
-50 -172 0
-46 -173 0
-47 -172 0
-49 -171 0
-49 -173 0
-47 -174 0
-49 -174 0
-48 -174 0
-48 -171 0
-50 -171 0
-50 -173 0
-49 -179 0
-47 -178 0
-50 -180 0
-49 -178 0
-48 -179 0
-50 -176 0
-49 -180 0
-46 -176 0
-46 -179 0
-46 -180 0
-46 -177 0
-46 -178 0
-50 -179 0
-50 -177 0
-47 -180 0
-48 -178 0
-48 -176 0
-49 -205 0
-46 -202 0
-50 -204 0
-47 -202 0
-46 -201 0
-46 -203 0
-46 -205 0
-50 -203 0
-47 -201 0
-48 -202 0
-48 -201 0
-48 -204 0
-46 -204 0
-49 -203 0
-50 -205 0
-49 -202 0
-49 -204 0
-53 -116 0
-51 -119 0
-51 -118 0
-54 -117 0
-52 -116 0
-53 -118 0
-55 -117 0
-52 -120 0
-54 -116 0
-53 -119 0
-54 -120 0
-51 -116 0
-51 -117 0
-52 -117 0
-53 -120 0
-52 -118 0
-55 -119 0
-51 -122 0
-55 -121 0
-53 -125 0
-54 -122 0
-53 -121 0
-53 -122 0
-53 -123 0
-52 -125 0
-55 -122 0
-53 -124 0
-55 -125 0
-52 -123 0
-51 -121 0
-54 -123 0
-52 -124 0
-54 -124 0
-52 -121 0
-53 -149 0
-51 -149 0
-53 -146 0
-54 -146 0
-55 -149 0
-53 -148 0
-53 -150 0
-55 -147 0
-54 -149 0
-54 -147 0
-52 -146 0
-52 -147 0
-51 -148 0
-51 -150 0
-54 -150 0
-55 -148 0
-55 -150 0
-54 -163 0
-53 -163 0
-51 -164 0
-54 -161 0
-51 -161 0
-55 -164 0
-55 -161 0
-55 -163 0
-51 -165 0
-51 -163 0
-52 -161 0
-55 -162 0
-53 -161 0
-53 -165 0
-54 -162 0
-52 -165 0
-53 -162 0
-57 -72 0
-56 -71 0
-60 -73 0
-59 -74 0
-60 -75 0
-60 -71 0
-59 -71 0
-58 -71 0
-59 -75 0
-58 -72 0
-58 -74 0
-57 -75 0
-56 -75 0
-59 -73 0
-57 -74 0
-59 -72 0
-56 -72 0
-60 -94 0
-59 -94 0
-59 -95 0
-60 -92 0
-57 -93 0
-60 -93 0
-59 -92 0
-57 -95 0
-56 -91 0
-58 -92 0
-58 -93 0
-57 -94 0
-58 -91 0
-56 -95 0
-59 -91 0
-58 -94 0
-56 -94 0
-58 -106 0
-60 -106 0
-60 -110 0
-56 -107 0
-59 -107 0
-58 -110 0
-59 -110 0
-57 -110 0
-56 -106 0
-56 -109 0
-60 -108 0
-60 -107 0
-56 -110 0
-60 -109 0
-57 -108 0
-56 -108 0
-57 -109 0
-58 -120 0
-57 -116 0
-58 -116 0
-57 -120 0
-58 -119 0
-60 -118 0
-56 -119 0
-57 -118 0
-59 -117 0
-58 -118 0
-60 -120 0
-57 -119 0
-59 -116 0
-57 -117 0
-58 -117 0
-59 -120 0
-59 -118 0
-56 -129 0
-56 -128 0
-59 -126 0
-57 -127 0
-60 -130 0
-58 -128 0
-59 -129 0
-60 -126 0
-60 -128 0
-57 -130 0
-58 -127 0
-56 -126 0
-57 -128 0
-57 -126 0
-58 -126 0
-59 -127 0
-58 -129 0
-59 -219 0
-59 -220 0
-60 -216 0
-58 -219 0
-56 -220 0
-60 -219 0
-57 -217 0
-57 -216 0
-56 -219 0
-57 -220 0
-56 -217 0
-56 -216 0
-60 -217 0
-58 -218 0
-60 -220 0
-59 -217 0
-56 -218 0
-70 -140 0
-66 -137 0
-68 -137 0
-67 -138 0
-67 -136 0
-68 -140 0
-67 -137 0
-66 -139 0
-67 -139 0
-69 -138 0
-66 -140 0
-69 -140 0
-69 -137 0
-69 -139 0
-67 -140 0
-68 -139 0
-70 -137 0
-69 -162 0
-66 -165 0
-68 -164 0
-69 -163 0
-68 -165 0
-69 -164 0
-66 -164 0
-70 -163 0
-67 -163 0
-68 -162 0
-70 -162 0
-66 -163 0
-69 -165 0
-66 -162 0
-67 -161 0
-70 -165 0
-67 -164 0
-72 -124 0
-75 -123 0
-73 -122 0
-72 -122 0
-74 -124 0
-75 -125 0
-72 -123 0
-75 -122 0
-73 -124 0
-71 -123 0
-74 -121 0
-75 -124 0
-74 -125 0
-73 -123 0
-71 -121 0
-71 -122 0
-72 -125 0
-72 -127 0
-71 -130 0
-74 -129 0
-75 -127 0
-74 -128 0
-75 -130 0
-72 -128 0
-73 -129 0
-75 -126 0
-73 -126 0
-73 -127 0
-72 -126 0
-75 -128 0
-74 -127 0
-74 -130 0
-73 -128 0
-71 -129 0
-72 -135 0
-71 -135 0
-71 -132 0
-73 -134 0
-73 -133 0
-73 -131 0
-71 -133 0
-75 -135 0
-72 -131 0
-72 -132 0
-74 -131 0
-71 -131 0
-72 -134 0
-75 -134 0
-75 -133 0
-74 -132 0
-72 -133 0
-74 -163 0
-72 -161 0
-73 -163 0
-73 -161 0
-71 -162 0
-73 -165 0
-75 -163 0
-75 -164 0
-74 -164 0
-71 -165 0
-71 -164 0
-75 -162 0
-73 -162 0
-74 -165 0
-75 -161 0
-72 -164 0
-71 -161 0
-73 -186 0
-72 -186 0
-74 -187 0
-72 -189 0
-75 -188 0
-75 -187 0
-74 -190 0
-73 -189 0
-75 -189 0
-72 -188 0
-73 -187 0
-74 -188 0
-74 -186 0
-71 -190 0
-71 -189 0
-73 -190 0
-72 -190 0
-71 -206 0
-72 -207 0
-73 -209 0
-72 -208 0
-73 -207 0
-74 -206 0
-73 -208 0
-75 -210 0
-74 -210 0
-71 -210 0
-71 -208 0
-72 -209 0
-75 -208 0
-71 -207 0
-74 -207 0
-73 -210 0
-72 -210 0
-72 -216 0
-72 -217 0
-75 -218 0
-73 -220 0
-74 -217 0
-75 -220 0
-71 -218 0
-74 -219 0
-71 -219 0
-75 -219 0
-73 -217 0
-75 -217 0
-73 -219 0
-74 -218 0
-74 -216 0
-73 -218 0
-71 -217 0
-80 -127 0
-78 -130 0
-80 -129 0
-77 -126 0
-79 -126 0
-80 -128 0
-79 -129 0
-79 -130 0
-76 -128 0
-76 -126 0
-77 -129 0
-78 -126 0
-78 -127 0
-78 -128 0
-76 -130 0
-80 -126 0
-77 -128 0
-77 -136 0
-78 -138 0
-78 -136 0
-76 -139 0
-77 -137 0
-80 -139 0
-80 -138 0
-79 -139 0
-77 -140 0
-76 -136 0
-76 -137 0
-79 -137 0
-78 -140 0
-79 -136 0
-80 -136 0
-78 -139 0
-77 -138 0
-78 -164 0
-80 -165 0
-80 -161 0
-80 -162 0
-76 -161 0
-80 -164 0
-76 -163 0
-77 -165 0
-79 -164 0
-76 -165 0
-80 -163 0
-78 -163 0
-78 -161 0
-79 -161 0
-78 -165 0
-76 -164 0
-78 -162 0
-80 -200 0
-77 -198 0
-78 -197 0
-79 -199 0
-76 -199 0
-77 -196 0
-80 -198 0
-79 -196 0
-77 -199 0
-78 -198 0
-80 -199 0
-79 -198 0
-76 -200 0
-79 -200 0
-78 -200 0
-80 -196 0
-76 -196 0
-82 -93 0
-82 -95 0
-84 -94 0
-81 -95 0
-83 -94 0
-82 -91 0
-85 -92 0
-81 -92 0
-83 -93 0
-81 -91 0
-83 -92 0
-81 -93 0
-83 -91 0
-85 -94 0
-81 -94 0
-84 -91 0
-84 -93 0
-85 -125 0
-84 -121 0
-82 -122 0
-85 -123 0
-84 -123 0
-84 -122 0
-83 -121 0
-83 -125 0
-82 -121 0
-82 -124 0
-82 -125 0
-84 -125 0
-82 -123 0
-83 -122 0
-84 -124 0
-85 -124 0
-83 -124 0
-83 -134 0
-81 -131 0
-84 -132 0
-83 -135 0
-85 -134 0
-81 -132 0
-82 -135 0
-81 -135 0
-84 -134 0
-82 -132 0
-83 -131 0
-83 -133 0
-81 -133 0
-83 -132 0
-84 -133 0
-85 -131 0
-82 -131 0
-81 -208 0
-82 -210 0
-84 -210 0
-81 -209 0
-85 -210 0
-81 -210 0
-85 -207 0
-81 -207 0
-84 -209 0
-82 -206 0
-84 -208 0
-83 -208 0
-85 -208 0
-84 -206 0
-83 -207 0
-83 -209 0
-82 -209 0
-83 -215 0
-82 -215 0
-81 -211 0
-82 -212 0
-82 -211 0
-84 -212 0
-85 -215 0
-81 -213 0
-83 -212 0
-85 -211 0
-84 -213 0
-81 -212 0
-83 -213 0
-82 -213 0
-84 -214 0
-83 -211 0
-84 -211 0
-87 -91 0
-86 -94 0
-88 -91 0
-88 -94 0
-86 -93 0
-88 -93 0
-90 -94 0
-86 -91 0
-86 -92 0
-88 -92 0
-90 -95 0
-90 -91 0
-87 -92 0
-89 -95 0
-90 -92 0
-89 -94 0
-88 -95 0
-94 -184 0
-92 -184 0
-91 -181 0
-91 -184 0
-95 -183 0
-94 -181 0
-93 -184 0
-93 -183 0
-91 -185 0
-92 -181 0
-95 -181 0
-94 -182 0
-93 -185 0
-93 -181 0
-94 -183 0
-91 -183 0
-92 -185 0
-91 -220 0
-95 -216 0
-91 -217 0
-93 -220 0
-94 -217 0
-94 -218 0
-95 -217 0
-91 -216 0
-95 -220 0
-92 -218 0
-93 -219 0
-95 -219 0
-91 -219 0
-93 -217 0
-92 -217 0
-94 -220 0
-93 -218 0
-99 -159 0
-100 -160 0
-96 -159 0
-97 -158 0
-96 -157 0
-100 -156 0
-100 -159 0
-99 -160 0
-99 -157 0
-98 -156 0
-97 -156 0
-98 -157 0
-98 -158 0
-96 -158 0
-98 -159 0
-98 -160 0
-97 -160 0
-99 -200 0
-96 -198 0
-100 -196 0
-99 -196 0
-97 -199 0
-96 -196 0
-98 -200 0
-99 -197 0
-97 -197 0
-96 -199 0
-98 -198 0
-97 -200 0
-99 -198 0
-98 -196 0
-97 -198 0
-98 -199 0
-100 -200 0
-106 -120 0
-107 -116 0
-110 -118 0
-106 -117 0
-109 -120 0
-109 -118 0
-108 -116 0
-106 -116 0
-109 -119 0
-107 -118 0
-110 -116 0
-110 -117 0
-109 -116 0
-108 -118 0
-108 -117 0
-108 -119 0
-107 -117 0
-107 -135 0
-109 -132 0
-110 -135 0
-109 -135 0
-106 -134 0
-110 -133 0
-106 -131 0
-108 -133 0
-107 -131 0
-106 -132 0
-109 -131 0
-108 -131 0
-110 -131 0
-109 -133 0
-107 -134 0
-108 -135 0
-108 -132 0
-107 -142 0
-107 -141 0
-108 -143 0
-110 -142 0
-109 -145 0
-110 -141 0
-110 -143 0
-110 -144 0
-108 -141 0
-106 -144 0
-107 -144 0
-108 -144 0
-106 -142 0
-107 -143 0
-106 -145 0
-109 -141 0
-106 -143 0
-110 -208 0
-108 -209 0
-106 -207 0
-109 -208 0
-108 -208 0
-107 -206 0
-107 -210 0
-110 -209 0
-110 -207 0
-106 -209 0
-109 -207 0
-106 -206 0
-108 -207 0
-107 -209 0
-108 -206 0
-109 -209 0
-110 -210 0
-115 -198 0
-113 -197 0
-115 -197 0
-113 -196 0
-113 -200 0
-114 -200 0
-113 -198 0
-114 -197 0
-111 -198 0
-112 -200 0
-112 -199 0
-112 -197 0
-114 -196 0
-115 -199 0
-115 -196 0
-111 -197 0
-113 -199 0
-119 -121 0
-117 -122 0
-117 -125 0
-116 -121 0
-117 -123 0
-118 -124 0
-116 -125 0
-120 -122 0
-117 -124 0
-120 -123 0
-116 -123 0
-120 -124 0
-118 -121 0
-116 -122 0
-120 -121 0
-119 -123 0
-120 -125 0
-120 -206 0
-117 -206 0
-119 -209 0
-117 -209 0
-118 -209 0
-116 -210 0
-116 -206 0
-118 -207 0
-117 -208 0
-116 -209 0
-119 -207 0
-116 -208 0
-117 -207 0
-119 -210 0
-120 -210 0
-119 -206 0
-117 -210 0
-121 -177 0
-122 -178 0
-124 -180 0
-125 -179 0
-125 -180 0
-122 -179 0
-123 -176 0
-123 -178 0
-123 -179 0
-122 -180 0
-121 -180 0
-124 -177 0
-124 -178 0
-121 -178 0
-125 -176 0
-124 -179 0
-123 -180 0
-129 -171 0
-128 -173 0
-128 -172 0
-130 -174 0
-130 -172 0
-127 -172 0
-126 -172 0
-126 -171 0
-126 -175 0
-128 -175 0
-129 -175 0
-130 -175 0
-129 -174 0
-126 -174 0
-128 -171 0
-126 -173 0
-127 -173 0
-126 -208 0
-127 -210 0
-126 -206 0
-129 -209 0
-128 -208 0
-129 -210 0
-130 -208 0
-130 -206 0
-126 -210 0
-126 -207 0
-127 -208 0
-126 -209 0
-127 -209 0
-128 -210 0
-128 -206 0
-129 -206 0
-127 -207 0
-126 -223 0
-129 -225 0
-126 -222 0
-128 -224 0
-129 -221 0
-128 -223 0
-127 -221 0
-126 -225 0
-127 -222 0
-129 -223 0
-127 -224 0
-128 -222 0
-129 -224 0
-130 -221 0
-130 -224 0
-126 -221 0
-130 -223 0
-134 -206 0
-133 -208 0
-133 -210 0
-131 -206 0
-132 -210 0
-132 -209 0
-131 -207 0
-133 -207 0
-135 -206 0
-132 -206 0
-134 -209 0
-134 -210 0
-135 -209 0
-135 -208 0
-135 -207 0
-134 -207 0
-133 -209 0
-135 -213 0
-134 -211 0
-133 -215 0
-131 -213 0
-135 -214 0
-134 -213 0
-135 -211 0
-131 -214 0
-132 -215 0
-133 -211 0
-132 -213 0
-134 -215 0
-131 -215 0
-131 -212 0
-134 -212 0
-134 -214 0
-132 -212 0
-138 -149 0
-139 -150 0
-140 -146 0
-140 -149 0
-140 -148 0
-138 -147 0
-137 -148 0
-136 -148 0
-137 -146 0
-136 -149 0
-140 -150 0
-138 -146 0
-136 -146 0
-139 -148 0
-137 -147 0
-137 -150 0
-139 -146 0
-136 -160 0
-140 -159 0
-140 -157 0
-136 -158 0
-140 -158 0
-139 -158 0
-139 -156 0
-137 -156 0
-138 -160 0
-138 -156 0
-137 -158 0
-138 -158 0
-140 -156 0
-136 -157 0
-139 -157 0
-138 -157 0
-136 -159 0
-136 -181 0
-138 -181 0
-136 -185 0
-140 -181 0
-137 -181 0
-139 -185 0
-137 -182 0
-137 -183 0
-138 -185 0
-139 -181 0
-137 -185 0
-137 -184 0
-139 -183 0
-138 -183 0
-138 -184 0
-138 -182 0
-140 -185 0
-138 -207 0
-137 -208 0
-137 -209 0
-138 -209 0
-136 -208 0
-139 -209 0
-136 -210 0
-137 -210 0
-140 -209 0
-138 -206 0
-136 -206 0
-138 -210 0
-136 -207 0
-140 -208 0
-138 -208 0
-139 -210 0
-137 -206 0
-139 -216 0
-137 -217 0
-137 -216 0
-140 -217 0
-139 -219 0
-139 -217 0
-138 -219 0
-140 -219 0
-140 -220 0
-137 -218 0
-138 -220 0
-139 -218 0
-138 -218 0
-137 -220 0
-136 -216 0
-136 -219 0
-140 -216 0
-144 -198 0
-143 -196 0
-143 -198 0
-144 -196 0
-145 -200 0
-141 -199 0
-145 -197 0
-143 -199 0
-141 -196 0
-141 -200 0
-144 -200 0
-143 -200 0
-143 -197 0
-141 -197 0
-142 -200 0
-144 -197 0
-144 -199 0
-154 -163 0
-152 -162 0
-154 -161 0
-151 -165 0
-153 -165 0
-152 -163 0
-153 -163 0
-151 -163 0
-154 -162 0
-153 -162 0
-155 -164 0
-151 -161 0
-153 -161 0
-152 -165 0
-155 -163 0
-155 -161 0
-152 -161 0
-153 -207 0
-155 -206 0
-151 -208 0
-152 -209 0
-154 -210 0
-155 -207 0
-154 -209 0
-153 -206 0
-154 -207 0
-155 -210 0
-155 -209 0
-151 -210 0
-154 -206 0
-151 -206 0
-153 -210 0
-152 -206 0
-151 -207 0
-153 -222 0
-155 -224 0
-154 -222 0
-155 -221 0
-155 -223 0
-152 -223 0
-155 -222 0
-153 -224 0
-152 -224 0
-151 -224 0
-154 -224 0
-153 -223 0
-151 -222 0
-151 -225 0
-154 -225 0
-151 -223 0
-154 -223 0
-156 -217 0
-160 -217 0
-159 -216 0
-156 -219 0
-160 -219 0
-157 -219 0
-157 -216 0
-156 -216 0
-160 -220 0
-159 -219 0
-160 -218 0
-157 -220 0
-158 -217 0
-158 -219 0
-159 -218 0
-156 -218 0
-159 -220 0
-161 -191 0
-162 -192 0
-163 -193 0
-164 -193 0
-162 -195 0
-162 -193 0
-161 -195 0
-163 -195 0
-162 -194 0
-165 -194 0
-165 -192 0
-161 -194 0
-161 -193 0
-164 -194 0
-163 -194 0
-165 -191 0
-162 -191 0
-162 -198 0
-161 -200 0
-165 -200 0
-161 -198 0
-164 -199 0
-165 -197 0
-164 -197 0
-162 -197 0
-162 -200 0
-163 -199 0
-163 -196 0
-162 -196 0
-163 -200 0
-162 -199 0
-163 -198 0
-161 -196 0
-161 -197 0
-172 -211 0
-172 -215 0
-173 -211 0
-171 -211 0
-173 -214 0
-173 -213 0
-171 -214 0
-174 -215 0
-175 -211 0
-172 -212 0
-171 -212 0
-174 -214 0
-175 -215 0
-171 -215 0
-175 -214 0
-175 -213 0
-174 -211 0
-182 -210 0
-185 -209 0
-185 -208 0
-183 -209 0
-181 -209 0
-183 -206 0
-181 -207 0
-183 -207 0
-185 -206 0
-184 -209 0
-184 -207 0
-185 -207 0
-182 -207 0
-184 -206 0
-185 -210 0
-181 -206 0
-182 -209 0
-191 -196 0
-194 -197 0
-191 -199 0
-192 -198 0
-195 -196 0
-192 -199 0
-193 -199 0
-195 -197 0
-192 -197 0
-194 -196 0
-195 -198 0
-193 -196 0
-193 -197 0
-195 -199 0
-193 -198 0
-194 -200 0
-192 -196 0
-191 -201 0
-191 -204 0
-195 -205 0
-195 -202 0
-191 -205 0
-192 -205 0
-193 -204 0
-194 -203 0
-195 -203 0
-194 -201 0
-195 -201 0
-192 -204 0
-193 -203 0
-191 -203 0
-192 -202 0
-194 -204 0
-191 -202 0
